
Gurobi 13.0.1 (linux64) logging started Thu Mar 26 01:29:42 2026

Set parameter LogFile to value "logs_sparse/50B_3F_robust_gamma_1_theta_0d05199999999999999_2026-03-26_01h29m36s.log"
Set parameter MIPGap to value 0.005
Set parameter OptimalityTol to value 0.005
Gurobi Optimizer version 13.0.1 build v13.0.1rc0 (linux64 - "Linux Mint 22")

CPU model: 12th Gen Intel(R) Core(TM) i7-12700, instruction set [SSE2|AVX|AVX2]
Thread count: 20 physical cores, 20 logical processors, using up to 20 threads

Non-default parameters:
TimeLimit  3600
SoftMemLimit  12
MIPGap  0.005
OptimalityTol  0.005

Optimize a model with 30471 rows, 390571 columns and 1204034 nonzeros (Max)
Model fingerprint: 0x8882b56c
Model has 367561 linear objective coefficients
Variable types: 8071 continuous, 382500 integer (382500 binary)
Coefficient statistics:
  Matrix range     [3e-05, 1e+05]
  Objective range  [1e+00, 3e+03]
  Bounds range     [1e+00, 1e+05]
  RHS range        [8e-03, 1e+05]

Presolve removed 15658 rows and 282196 columns
Presolve time: 0.60s
Presolved: 14813 rows, 108375 columns, 345908 nonzeros
Variable types: 3921 continuous, 104454 integer (104454 binary)
Found heuristic solution: objective -3.92155e+08
Deterministic concurrent LP optimizer: primal and dual simplex
Showing primal log only...

Concurrent spin time: 0.44s (can be avoided by choosing Method=3)

Solved with dual simplex

Root relaxation: objective 5.602360e+07, 10565 iterations, 1.62 seconds (2.56 work units)

    Nodes    |    Current Node    |     Objective Bounds      |     Work
 Expl Unexpl |  Obj  Depth IntInf | Incumbent    BestBd   Gap | It/Node Time

     0     0 5.6024e+07    0 2663 -3.922e+08 5.6024e+07   114%     -    2s
H    0     0                    -2.21617e+08 5.6024e+07   125%     -    3s
H    0     0                    -1.15704e+08 5.6024e+07   148%     -    3s
H    0     0                    -1.01808e+08 5.6024e+07   155%     -    3s
H    0     0                    -9.23948e+07 5.6024e+07   161%     -    3s
H    0     0                    -2.68932e+07 5.6024e+07   308%     -    3s
H    0     0                    -2.68931e+07 5.6024e+07   308%     -    4s
H    0     0                    -2.54877e+07 5.6024e+07   320%     -    4s
H    0     0                    -2.54862e+07 5.6024e+07   320%     -    5s
H    0     0                    -2.54833e+07 5.6024e+07   320%     -    5s
H    0     0                    -2.54824e+07 5.6024e+07   320%     -    5s
H    0     0                    -2.54819e+07 5.6024e+07   320%     -    6s
H    0     0                    -2.54815e+07 5.6024e+07   320%     -    6s
H    0     0                    -2.54805e+07 5.6024e+07   320%     -    6s
H    0     0                    -1.78715e+07 5.6024e+07   413%     -    8s
H    0     0                    2194395.7611 5.6024e+07  2453%     -    9s
H    0     0                    3.928339e+07 5.6024e+07  42.6%     -   10s
H    0     0                    3.928422e+07 5.6024e+07  42.6%     -   11s
H    0     0                    3.928505e+07 5.6024e+07  42.6%     -   11s
H    0     0                    3.928544e+07 5.6024e+07  42.6%     -   11s
H    0     0                    4.788596e+07 5.6021e+07  17.0%     -   46s
H    0     0                    4.788625e+07 5.6021e+07  17.0%     -   46s
H    0     0                    5.598162e+07 5.6021e+07  0.07%     -   46s
H    0     0                    5.598580e+07 5.6021e+07  0.06%     -   46s
     0     0 5.6020e+07    0 3230 5.5986e+07 5.6020e+07  0.06%     -   48s

Cutting planes:
  Gomory: 5
  MIR: 1
  Flow cover: 1
  RLT: 937

Explored 1 nodes (80959 simplex iterations) in 48.87 seconds (73.27 work units)
Thread count was 20 (of 20 available processors)

Solution count 10: 5.59858e+07 5.59816e+07 4.78863e+07 ... -1.78715e+07

Optimal solution found (tolerance 5.00e-03)
Best objective 5.598579767148e+07, best bound 5.602011809208e+07, gap 0.0613%
